c Arquivo convertido de can__144.mtx
p edge 144 576
e 1 2
e 1 3
e 1 47
e 1 49
e 1 50
e 1 51
e 1 142
e 1 143
e 2 3
e 2 4
e 2 47
e 2 48
e 2 49
e 2 50
e 2 51
e 2 52
e 2 53
e 2 141
e 2 142
e 2 143
e 2 144
e 3 4
e 3 5
e 3 6
e 3 49
e 3 50
e 3 51
e 3 52
e 3 53
e 3 54
e 3 55
e 3 56
e 3 57
e 4 6
e 4 51
e 4 52
e 4 53
e 4 55
e 4 56
e 5 6
e 5 7
e 5 54
e 5 55
e 5 57
e 5 58
e 5 59
e 6 7
e 6 8
e 6 53
e 6 54
e 6 55
e 6 56
e 6 57
e 6 58
e 6 59
e 6 60
e 6 61
e 7 8
e 7 9
e 7 10
e 7 57
e 7 58
e 7 59
e 7 60
e 7 61
e 7 62
e 7 63
e 7 64
e 7 65
e 8 10
e 8 59
e 8 60
e 8 61
e 8 63
e 8 64
e 9 10
e 9 11
e 9 62
e 9 63
e 9 65
e 9 66
e 9 67
e 10 11
e 10 12
e 10 61
e 10 62
e 10 63
e 10 64
e 10 65
e 10 66
e 10 67
e 10 68
e 10 69
e 11 12
e 11 13
e 11 14
e 11 65
e 11 66
e 11 67
e 11 68
e 11 69
e 11 70
e 11 71
e 11 72
e 11 73
e 12 14
e 12 67
e 12 68
e 12 69
e 12 71
e 12 72
e 13 14
e 13 15
e 13 70
e 13 71
e 13 73
e 13 74
e 13 75
e 14 15
e 14 16
e 14 69
e 14 70
e 14 71
e 14 72
e 14 73
e 14 74
e 14 75
e 14 76
e 14 77
e 15 16
e 15 17
e 15 18
e 15 73
e 15 74
e 15 75
e 15 76
e 15 77
e 15 78
e 15 79
e 15 80
e 15 81
e 16 18
e 16 75
e 16 76
e 16 77
e 16 79
e 16 80
e 17 18
e 17 19
e 17 78
e 17 79
e 17 81
e 17 82
e 17 83
e 18 19
e 18 20
e 18 77
e 18 78
e 18 79
e 18 80
e 18 81
e 18 82
e 18 83
e 18 84
e 18 85
e 19 20
e 19 21
e 19 22
e 19 81
e 19 82
e 19 83
e 19 84
e 19 85
e 19 86
e 19 87
e 19 88
e 19 89
e 20 22
e 20 83
e 20 84
e 20 85
e 20 87
e 20 88
e 21 22
e 21 23
e 21 86
e 21 87
e 21 89
e 21 90
e 21 91
e 22 23
e 22 24
e 22 85
e 22 86
e 22 87
e 22 88
e 22 89
e 22 90
e 22 91
e 22 92
e 22 93
e 23 24
e 23 25
e 23 26
e 23 89
e 23 90
e 23 91
e 23 92
e 23 93
e 23 94
e 23 95
e 23 96
e 23 97
e 24 26
e 24 91
e 24 92
e 24 93
e 24 95
e 24 96
e 25 26
e 25 27
e 25 94
e 25 95
e 25 97
e 25 98
e 25 99
e 26 27
e 26 28
e 26 93
e 26 94
e 26 95
e 26 96
e 26 97
e 26 98
e 26 99
e 26 100
e 26 101
e 27 28
e 27 29
e 27 30
e 27 97
e 27 98
e 27 99
e 27 100
e 27 101
e 27 102
e 27 103
e 27 104
e 27 105
e 28 30
e 28 99
e 28 100
e 28 101
e 28 103
e 28 104
e 29 30
e 29 31
e 29 102
e 29 103
e 29 105
e 29 106
e 29 107
e 30 31
e 30 32
e 30 101
e 30 102
e 30 103
e 30 104
e 30 105
e 30 106
e 30 107
e 30 108
e 30 109
e 31 32
e 31 33
e 31 34
e 31 105
e 31 106
e 31 107
e 31 108
e 31 109
e 31 110
e 31 111
e 31 112
e 31 113
e 32 34
e 32 107
e 32 108
e 32 109
e 32 111
e 32 112
e 33 34
e 33 35
e 33 110
e 33 111
e 33 113
e 33 114
e 33 115
e 34 35
e 34 36
e 34 109
e 34 110
e 34 111
e 34 112
e 34 113
e 34 114
e 34 115
e 34 116
e 34 117
e 35 36
e 35 37
e 35 38
e 35 113
e 35 114
e 35 115
e 35 116
e 35 117
e 35 118
e 35 119
e 35 120
e 35 121
e 36 38
e 36 115
e 36 116
e 36 117
e 36 119
e 36 120
e 37 38
e 37 39
e 37 118
e 37 119
e 37 121
e 37 122
e 37 123
e 38 39
e 38 40
e 38 117
e 38 118
e 38 119
e 38 120
e 38 121
e 38 122
e 38 123
e 38 124
e 38 125
e 39 40
e 39 41
e 39 42
e 39 121
e 39 122
e 39 123
e 39 124
e 39 125
e 39 126
e 39 127
e 39 128
e 39 129
e 40 42
e 40 123
e 40 124
e 40 125
e 40 127
e 40 128
e 41 42
e 41 43
e 41 126
e 41 127
e 41 129
e 41 130
e 41 131
e 42 43
e 42 44
e 42 125
e 42 126
e 42 127
e 42 128
e 42 129
e 42 130
e 42 131
e 42 132
e 42 133
e 43 44
e 43 45
e 43 46
e 43 129
e 43 130
e 43 131
e 43 132
e 43 133
e 43 134
e 43 135
e 43 136
e 43 137
e 44 46
e 44 131
e 44 132
e 44 133
e 44 135
e 44 136
e 45 46
e 45 47
e 45 134
e 45 135
e 45 137
e 45 138
e 45 139
e 46 47
e 46 48
e 46 133
e 46 134
e 46 135
e 46 136
e 46 137
e 46 138
e 46 139
e 46 140
e 46 141
e 47 48
e 47 49
e 47 137
e 47 138
e 47 139
e 47 140
e 47 141
e 47 142
e 47 143
e 47 144
e 48 139
e 48 140
e 48 141
e 48 143
e 48 144
e 49 50
e 49 51
e 49 142
e 49 143
e 50 51
e 51 52
e 51 53
e 52 53
e 53 55
e 53 56
e 54 55
e 54 57
e 55 56
e 55 57
e 57 58
e 57 59
e 58 59
e 59 60
e 59 61
e 60 61
e 61 63
e 61 64
e 62 63
e 62 65
e 63 64
e 63 65
e 65 66
e 65 67
e 66 67
e 67 68
e 67 69
e 68 69
e 69 71
e 69 72
e 70 71
e 70 73
e 71 72
e 71 73
e 73 74
e 73 75
e 74 75
e 75 76
e 75 77
e 76 77
e 77 79
e 77 80
e 78 79
e 78 81
e 79 80
e 79 81
e 81 82
e 81 83
e 82 83
e 83 84
e 83 85
e 84 85
e 85 87
e 85 88
e 86 87
e 86 89
e 87 88
e 87 89
e 89 90
e 89 91
e 90 91
e 91 92
e 91 93
e 92 93
e 93 95
e 93 96
e 94 95
e 94 97
e 95 96
e 95 97
e 97 98
e 97 99
e 98 99
e 99 100
e 99 101
e 100 101
e 101 103
e 101 104
e 102 103
e 102 105
e 103 104
e 103 105
e 105 106
e 105 107
e 106 107
e 107 108
e 107 109
e 108 109
e 109 111
e 109 112
e 110 111
e 110 113
e 111 112
e 111 113
e 113 114
e 113 115
e 114 115
e 115 116
e 115 117
e 116 117
e 117 119
e 117 120
e 118 119
e 118 121
e 119 120
e 119 121
e 121 122
e 121 123
e 122 123
e 123 124
e 123 125
e 124 125
e 125 127
e 125 128
e 126 127
e 126 129
e 127 128
e 127 129
e 129 130
e 129 131
e 130 131
e 131 132
e 131 133
e 132 133
e 133 135
e 133 136
e 134 135
e 134 137
e 135 136
e 135 137
e 137 138
e 137 139
e 138 139
e 139 140
e 139 141
e 140 141
e 141 143
e 141 144
e 142 143
e 143 144
